p cnf 19 27
-5 13 0 
-7 12 0 
-9 4 0 
-19 6 0 
-3 11 0 
-1 17 0 
-4 10 0 
-1 18 0 
-14 5 0 
-10 4 5 0 
-2 16 0 
-15 2 0 
-1 8 0 
-17 1 0 
-13 5 0 
-6 19 0 
-12 7 0 
-5 10 0 
-2 15 0 
-11 3 0 
-16 1 2 0 
-5 14 0 
-4 9 0 
1 4 6 0 
-1 16 0 
-18 1 0 
-8 1 0 
